NAME: toy8
TYPE: TSP
COMMENT: https://doi.org/10.1145/263867.26387; minimum cut {7 8 4 3}; cut-of-the-phase 4
DIMENSION: 8
EDGE_WEIGHT_TYPE: EXPLICIT
EDGE_WEIGHT_FORMAT: UPPER_ROW
EDGE_WEIGHT_SECTION
2 0 0 3 0 0 0
3 0 2 2 0 0
4 0 0 2 0
0 0 2 2
3 0 0
1 0
3
EOF